benchmarks/crosswords/crossword3_22.ozn
output ([(((("\n"++problem_name)++"\n")++"L:")++show(L))++"\n"]++[if problem[i,j]==0 then "*" else show(letters[fix(L[problem[i,j]])]) endif++if j==cols then "\n" else "" endif | i in 1..rows, j in 1..cols, ])++["\n"];
int: rows = 19;
int: cols = 19;
array [1..rows,1..cols] of int: problem = [|1,2,3,4,5,6,0,7,8,9,10,11,0,12,13,14,15,16,17|18,19,20,21,22,23,0,24,25,26,27,28,0,29,30,31,32,33,34|35,36,37,38,39,40,0,41,42,43,44,45,0,46,47,48,49,50,51|52,53,54,0,55,56,57,58,59,0,60,61,62,63,64,0,65,66,67|68,69,70,71,0,72,73,74,75,0,76,77,78,79,0,80,81,82,83|84,85,86,87,88,0,89,90,91,92,93,94,95,0,96,97,98,99,100|0,0,0,101,102,103,104,105,0,106,107,108,109,110,111,112,0,0,0|113,114,115,116,117,118,119,0,120,121,122,0,123,124,125,126,127,128,129|130,131,132,133,134,135,0,136,137,138,0,139,140,141,142,143,144,145,146|147,148,149,0,0,150,151,152,153,154,155,156,157,158,0,0,159,160,161|162,163,164,165,166,167,168,169,0,170,171,172,0,173,174,175,176,177,178|179,180,181,182,183,184,185,0,186,187,188,0,189,190,191,192,193,194,195|0,0,0,196,197,198,199,200,201,202,0,203,204,205,206,207,0,0,0|208,209,210,211,212,0,213,214,215,216,217,218,219,0,220,221,222,223,224|225,226,227,228,0,229,230,231,232,0,233,234,235,236,0,237,238,239,240|241,242,243,0,244,245,246,247,248,0,249,250,251,252,253,0,254,255,256|257,258,259,260,261,262,0,263,264,265,266,267,0,268,269,270,271,272,273|274,275,276,277,278,279,0,280,281,282,283,284,0,285,286,287,288,289,290|291,292,293,294,295,296,0,297,298,299,300,301,0,302,303,304,305,306,307|];
int: num_letters = 26;
array [1..num_letters] of string: letters = ["a","b","c","d","e","f","g","h","i","j","k","l","m","n","o","p","q","r","s","t","u","v","w","x","y","z"];
int: N = 307;
array [0..N] of int: L;
string: problem_name = "19.03, 19 x 19";
